
List of user-set options:

                                    Name   Value                used
                           compl_inf_tol = 1                     yes
                         constr_viol_tol = 1                     yes
                            dual_inf_tol = 1000                  yes
                           linear_solver = ma97                  yes
                              ma86_small = 1e-30                  no
                                  ma86_u = 0.0001                 no
                              ma97_order = best                  yes
                              ma97_small = 1e-30                 yes
                            ma97_switch1 = at_start              yes
                            ma97_switch2 = od_hd_reuse           yes
                                  ma97_u = 1e-06                 yes
                               ma97_umax = 0.5                   yes
                                max_iter = 1000                  yes
                    max_refinement_steps = 20                    yes
                    min_refinement_steps = 5                     yes
                                 mu_init = 1e-06                 yes
           mu_superlinear_decrease_power = 1.25                  yes
                   nlp_scaling_min_value = 1e-08                 yes
                        option_file_name = Preset_Case_752_pf.opt  yes
                             output_file = ./tmp/Preset_Case_752_pf.output  yes
                      print_user_options = yes                   yes
        required_infeasibility_reduction = 1                      no
                                     tol = 1e-08                 yes
                   warm_start_bound_frac = 1e-20                 yes
                   warm_start_bound_push = 1e-20                 yes
                   warm_start_init_point = yes                   yes
              warm_start_mult_bound_push = 1e-20                 yes
                warm_start_mult_init_max = 1e+40                 yes
             warm_start_slack_bound_frac = 1e-20                 yes
             warm_start_slack_bound_push = 1e-20                 yes

******************************************************************************
This program contains Ipopt, a library for large-scale nonlinear optimization.
 Ipopt is released as open source code under the Eclipse Public License (EPL).
         For more information visit http://projects.coin-or.org/Ipopt
******************************************************************************

This is Ipopt version 3.12.10, running with linear solver ma97.

Number of nonzeros in equality constraint Jacobian...:   123442
Number of nonzeros in inequality constraint Jacobian.:      213
Number of nonzeros in Lagrangian Hessian.............:    49069

Total number of variables............................:    31591
                     variables with only lower bounds:    12912
                variables with lower and upper bounds:    15130
                     variables with only upper bounds:        0
Total number of equality constraints.................:    31483
Total number of inequality constraints...............:       25
        inequality constraints with only lower bounds:        4
   inequality constraints with lower and upper bounds:        0
        inequality constraints with only upper bounds:       21

iter    objective    inf_pr   inf_du lg(mu)  ||d||  lg(rg) alpha_du alpha_pr  ls
   0 -5.4381198e+00 4.00e-03 1.02e+00  -6.0 0.00e+00    -  0.00e+00 0.00e+00   0
   1 -5.4454915e+00 8.54e+00 3.36e+01  -6.0 4.02e+05    -  7.87e-05 1.12e-03h  1
   2 -5.4454541e+00 8.54e+00 3.36e+01  -6.0 2.53e+03    -  1.13e-04 3.26e-05h  1
   3 -5.4390636e+00 8.52e+00 1.47e+02  -6.0 1.76e+04    -  8.88e-05 2.26e-03h  2
   4 -5.4379357e+00 8.51e+00 1.59e+02  -6.0 4.06e+03    -  1.84e-01 1.03e-03h  3
   5 -5.4376478e+00 8.51e+00 1.59e+02  -6.0 1.48e+03    -  1.32e-03 2.17e-04h  8
   6 -5.4374816e+00 8.51e+00 1.59e+02  -6.0 3.99e+03    -  4.72e-03 1.52e-04h 12
   7 -5.4352198e+00 8.49e+00 1.35e+02  -6.0 3.99e+03    -  2.07e-03 2.07e-03s 21
   8r-5.4352198e+00 8.49e+00 9.99e+02   0.9 0.00e+00    -  0.00e+00 0.00e+00R  1
   9r-5.4419716e+00 8.49e+00 2.22e+03   0.9 6.83e+04    -  2.99e-07 4.58e-08f  1
iter    objective    inf_pr   inf_du lg(mu)  ||d||  lg(rg) alpha_du alpha_pr  ls
  10 -5.4535796e+00 8.48e+00 2.02e+03  -6.0 2.37e+05    -  6.22e-06 1.19e-03h  1
  11 -5.4569831e+00 8.46e+00 2.36e+03  -6.0 1.39e+05    -  1.57e-05 3.21e-03h  1
  12 -5.4563456e+00 8.45e+00 2.36e+03  -6.0 4.82e+04    -  1.46e-02 1.17e-03h  7
  13 -5.4556186e+00 8.44e+00 2.38e+03  -6.0 3.56e+04    -  2.28e-03 1.30e-03h  6
  14 -5.4548743e+00 8.42e+00 2.40e+03  -6.0 2.48e+04    -  1.19e-02 1.26e-03h  6
  15 -5.4596797e+00 1.25e+01 9.41e+04  -6.0 3.29e+04    -  6.38e-03 2.32e-02h  1
  16 -5.5654699e+00 9.48e+01 5.59e+05  -6.0 4.86e+04    -  3.87e-03 6.96e-02h  1
  17 -5.5539175e+00 9.34e+01 5.47e+05  -6.0 4.62e+02  -4.0 1.41e-02 1.51e-02h  1
  18 -5.4947137e+00 8.54e+01 4.12e+05  -6.0 4.55e+02  -4.5 1.51e-02 8.55e-02h  2
  19 -5.4923854e+00 8.48e+01 4.09e+05  -6.0 4.01e+02  -5.0 3.68e-02 7.06e-03h  1
iter    objective    inf_pr   inf_du lg(mu)  ||d||  lg(rg) alpha_du alpha_pr  ls
  20 -5.4824022e+00 8.24e+01 3.93e+05  -6.0 4.15e+02  -5.4 1.54e-01 2.85e-02h  1
  21 -5.4729280e+00 7.76e+01 3.60e+05  -6.0 4.19e+02  -5.9 2.63e-01 5.89e-02h  1
  22 -5.4730647e+00 7.72e+01 3.59e+05  -6.0 5.79e+02  -6.4 3.93e-01 4.20e-03h  1
  23 -5.5147807e+00 6.00e+01 4.56e+05  -6.0 1.11e+03  -6.9 2.21e-01 2.22e-01h  1
  24 -5.5135456e+00 5.87e+01 4.38e+05  -6.0 7.14e+02  -7.3 4.60e-05 2.31e-02h  1
  25 -5.5141110e+00 4.83e+01 7.53e+04  -6.0 8.39e+02  -7.8 7.42e-02 1.81e-01h  1
  26 -5.5395959e+00 3.76e+01 3.52e+08  -6.0 2.59e+03  -8.3 5.12e-02 2.52e-01h  1
  27 -5.5396056e+00 3.76e+01 3.52e+08  -6.0 3.15e+02  -0.4 1.93e-07 5.51e-05h  1
  28 -5.5396057e+00 3.76e+01 3.52e+08  -6.0 9.83e+01  -0.9 6.43e-04 5.70e-07h  2
  29 -5.5396088e+00 3.76e+01 3.52e+08  -6.0 2.82e+02  -1.4 5.67e-06 1.82e-05h  1
iter    objective    inf_pr   inf_du lg(mu)  ||d||  lg(rg) alpha_du alpha_pr  ls
  30 -5.5434565e+00 3.68e+01 3.44e+08  -6.0 9.66e+01  -1.9 1.22e-03 2.08e-02f  1
  31 -5.5445214e+00 3.66e+01 3.42e+08  -6.0 9.31e+01  -2.4 1.42e-02 5.71e-03h  1
  32 -5.5664708e+00 3.24e+01 2.85e+08  -6.0 9.23e+01  -2.8 2.66e-02 1.17e-01h  1
  33 -5.6332871e+00 2.16e+01 1.36e+08  -6.0 7.33e+01  -3.3 3.24e-01 3.33e-01h  1
  34 -5.7072767e+00 1.36e+01 8.46e+07  -6.0 2.37e+01  -3.8 1.70e-01 3.70e-01h  1
  35 -5.8377535e+00 3.88e+00 2.39e+07  -6.0 1.48e+01  -4.3 4.23e-01 7.14e-01h  1
  36 -5.8571409e+00 3.01e+00 1.87e+07  -6.0 5.42e+01  -4.7 8.70e-01 2.26e-01h  1
  37 -5.8764159e+00 2.73e+00 1.70e+07  -6.0 4.53e+01  -5.2 3.69e-01 9.05e-02h  1
  38 -5.9164568e+00 1.69e+00 1.08e+07  -6.0 5.33e+01  -5.7 2.86e-01 3.83e-01h  1
  39 -5.9465800e+00 1.23e+00 7.85e+06  -6.0 5.26e+01  -6.2 1.00e+00 2.73e-01h  1
iter    objective    inf_pr   inf_du lg(mu)  ||d||  lg(rg) alpha_du alpha_pr  ls
  40 -6.0015542e+00 5.26e-01 1.29e+06  -6.0 5.40e+01  -6.7 7.95e-01 8.52e-01h  1
  41 -6.0246103e+00 2.04e+01 6.00e+05  -6.0 1.93e+03    -  5.30e-01 5.25e-01h  1
  42 -6.0160628e+00 3.49e-01 1.17e+05  -6.0 9.14e+01  -7.1 1.19e-01 1.00e+00h  1
  43 -6.0252911e+00 1.58e-01 1.96e+04  -6.0 5.83e+01  -5.8 5.56e-01 8.02e-01h  1
  44 -6.0307434e+00 1.19e-01 3.34e+04  -6.0 5.72e+01  -6.3 3.10e-01 8.22e-01h  1
  45 -6.0379391e+00 1.57e-01 1.55e+03  -6.0 6.21e+01  -6.8 9.35e-01 1.00e+00f  1
  46 -6.0451779e+00 2.52e-01 1.83e+04  -6.0 7.50e+01  -7.2 7.99e-01 1.00e+00h  1
  47 -6.0499199e+00 3.65e-01 4.69e+04  -6.0 9.02e+01  -6.8 9.08e-01 5.63e-01h  1
  48r-6.0499199e+00 3.65e-01 1.00e+03  -0.4 0.00e+00  -7.3 0.00e+00 3.50e-07R  3
  49r-6.0542498e+00 3.64e-01 1.00e+03  -0.4 1.53e+04    -  1.38e-05 3.65e-06f  1
iter    objective    inf_pr   inf_du lg(mu)  ||d||  lg(rg) alpha_du alpha_pr  ls
  50 -6.0538547e+00 3.41e-01 1.08e+06  -6.0 5.89e+00    -  7.34e-01 6.17e-02h  1
  51 -6.0516421e+00 2.15e-01 6.61e+06  -6.0 5.67e+00    -  6.18e-02 3.71e-01h  1
  52 -6.0482783e+00 1.79e-03 2.46e+02  -6.0 3.41e+00    -  5.90e-01 1.00e+00h  1
  53 -6.0485977e+00 4.56e-04 7.97e+01  -6.0 8.08e-01    -  9.93e-01 7.49e-01h  1
  54 -6.0553632e+00 7.25e-02 2.06e+01  -6.0 4.25e+01    -  8.40e-01 1.00e+00f  1
  55 -6.0558929e+00 1.73e-01 1.72e+01  -6.0 1.34e+02    -  8.56e-01 2.47e-01h  2
  56 -6.0569166e+00 2.80e-01 1.65e+01  -6.0 3.80e+02  -7.8 3.46e-01 7.01e-02h  2
  57 -6.0594221e+00 2.64e-01 1.97e+01  -6.0 2.69e+02  -7.3 4.17e-01 2.73e-01H  1
  58 -6.0659911e+00 2.68e-01 1.29e+01  -6.0 9.36e+01  -6.9 7.06e-01 1.00e+00h  1
  59 -6.0811335e+00 2.91e+00 2.88e+01  -6.0 4.64e+02  -7.4 4.18e-01 9.05e-01h  1
iter    objective    inf_pr   inf_du lg(mu)  ||d||  lg(rg) alpha_du alpha_pr  ls
  60 -6.1081047e+00 4.62e+00 5.42e+01  -6.0 1.74e+03  -7.9 2.04e-01 3.28e-01h  1
  61 -6.1097097e+00 4.55e+00 2.53e+02  -6.0 2.96e+03  -8.3 4.52e-02 1.64e-02h  1
  62 -6.1133293e+00 4.41e+00 2.85e+03  -6.0 3.19e+03    -  2.59e-01 3.35e-02h  1
  63 -6.1223476e+00 4.07e+00 2.45e+03  -6.0 3.07e+03    -  7.74e-02 9.32e-02h  1
  64 -6.1374756e+00 3.40e+00 7.55e+03  -6.0 2.67e+03    -  7.15e-01 1.99e-01h  1
  65 -6.1668970e+00 1.78e+00 4.60e+03  -6.0 2.15e+03    -  7.22e-01 5.80e-01h  1
  66 -6.1700990e+00 1.45e+00 1.81e+04  -6.0 1.09e+03    -  6.07e-01 1.83e-01h  1
  67 -6.1767536e+00 1.27e+00 8.04e+03  -6.0 9.33e+02    -  3.10e-01 4.01e-01h  1
  68 -6.1886456e+00 1.05e+01 1.17e+04  -6.0 1.03e+03    -  5.37e-01 7.25e-01h  1
  69 -6.1962983e+00 2.10e+01 5.69e+04  -6.0 2.26e+03    -  1.76e-01 4.10e-01h  1
iter    objective    inf_pr   inf_du lg(mu)  ||d||  lg(rg) alpha_du alpha_pr  ls
  70 -6.2053889e+00 1.32e+01 1.01e+04  -6.0 6.23e+02    -  5.33e-01 4.33e-01h  1
  71 -6.2154271e+00 8.16e+00 1.20e+04  -6.0 7.80e+02    -  3.71e-01 3.92e-01h  1
  72r-6.2154271e+00 8.16e+00 1.00e+03   0.8 0.00e+00  -7.9 0.00e+00 2.10e-07R  2
  73r-6.2474847e+00 8.16e+00 1.66e+03   0.8 2.93e+04    -  1.00e-06 4.64e-07f  1
  74 -6.2458878e+00 7.76e+00 5.52e+04  -6.0 1.09e+01    -  8.29e-02 4.87e-02h  1
  75 -6.2362004e+00 5.36e+00 7.54e+05  -6.0 1.01e+01    -  4.87e-02 3.09e-01h  1
  76 -6.2291488e+00 3.62e+00 5.09e+05  -6.0 6.30e+00    -  5.30e-01 3.24e-01h  1
  77 -6.2145935e+00 4.08e-04 2.66e+01  -6.0 3.39e+00    -  8.09e-01 1.00e+00h  1
  78 -6.2153330e+00 2.07e-04 3.55e+01  -6.0 1.57e+00    -  8.67e-01 6.23e-01h  1
  79 -6.2174400e+00 2.31e-03 6.36e+00  -6.0 7.69e+00    -  9.30e-01 1.00e+00f  1
iter    objective    inf_pr   inf_du lg(mu)  ||d||  lg(rg) alpha_du alpha_pr  ls
  80 -6.2228398e+00 2.64e-01 2.60e+00  -6.0 9.72e+01    -  8.67e-01 1.00e+00h  1
  81 -6.2298471e+00 5.83e-01 5.29e+00  -6.0 1.45e+02    -  8.01e-01 9.32e-01h  1
  82 -6.2323886e+00 4.80e-01 3.75e+00  -6.0 1.62e+02    -  6.49e-01 7.23e-01h  1
  83 -6.2325274e+00 1.60e+00 1.57e+04  -6.0 6.11e+02  -8.4 1.37e-02 4.90e-01h  1
  84 -6.2353275e+00 1.19e+00 1.11e+04  -6.0 1.32e+02  -6.2 7.43e-01 2.54e-01h  1
  85 -6.2345325e+00 3.71e-01 1.58e+04  -6.0 1.09e+02  -6.6 8.02e-02 9.89e-01h  1
  86 -6.2340069e+00 1.89e-01 8.16e+03  -6.0 1.54e+02  -7.1 5.35e-01 4.90e-01h  1
  87 -6.2311034e+00 1.87e-01 7.86e+03  -6.0 8.59e+02  -6.7 9.56e-02 1.06e-02h  2
  88 -6.2355671e+00 1.63e-01 6.85e+03  -6.0 6.14e+02  -7.2 8.54e-02 1.34e-01h  1
  89 -6.2572523e+00 1.11e+01 7.46e+02  -6.0 9.11e+02  -7.6 2.55e-01 1.00e+00h  1
iter    objective    inf_pr   inf_du lg(mu)  ||d||  lg(rg) alpha_du alpha_pr  ls
  90 -6.2741893e+00 3.20e+00 7.36e+02  -6.0 1.01e+03    -  3.47e-01 1.00e+00h  1
  91 -6.2767462e+00 2.72e+00 5.97e+02  -6.0 7.87e+02    -  8.64e-01 2.48e-01h  1
  92 -6.2927967e+00 3.31e-01 3.75e+01  -6.0 9.17e+02    -  5.51e-01 1.00e+00h  1
  93 -6.2911136e+00 5.47e-01 1.56e+02  -6.0 6.38e+02    -  9.81e-01 6.63e-01h  1
  94 -6.2892144e+00 8.49e-03 2.76e+00  -6.0 2.17e+02    -  7.84e-01 1.00e+00h  1
  95 -6.2890594e+00 1.15e-02 3.93e+00  -6.0 7.07e+01    -  1.00e+00 1.00e+00h  1
  96 -6.2890532e+00 8.04e-06 1.59e-03  -6.0 9.92e-01    -  1.00e+00 1.00e+00h  1
  97 -6.2890532e+00 3.59e-10 1.10e-07  -6.0 1.16e-02    -  1.00e+00 1.00e+00h  1
  98 -6.2891120e+00 7.35e-02 9.85e+01  -7.5 1.14e+02    -  9.18e-01 5.78e-01h  1
  99 -6.2891319e+00 4.35e-02 1.66e+01  -7.5 5.13e+01    -  1.00e+00 8.64e-01h  1
iter    objective    inf_pr   inf_du lg(mu)  ||d||  lg(rg) alpha_du alpha_pr  ls
 100 -6.2891310e+00 5.90e-04 1.97e-02  -7.5 5.83e+00    -  1.00e+00 1.00e+00h  1
 101 -6.2891310e+00 9.79e-10 3.65e-06  -7.5 5.45e-03    -  1.00e+00 1.00e+00h  1
 102 -6.2891310e+00 2.85e-10 1.08e-08  -7.5 3.32e-04    -  1.00e+00 1.00e+00h  1
 103 -6.2891324e+00 1.64e-04 8.82e-01  -9.0 3.75e+00    -  9.22e-01 8.26e-01h  1
 104 -6.2891326e+00 7.30e-06 2.68e-01  -9.0 6.53e-01    -  9.42e-01 1.00e+00f  1
 105 -6.2891327e+00 2.86e-10 5.18e-09  -9.0 1.19e-04    -  1.00e+00 1.00e+00h  1

Number of Iterations....: 105

                                   (scaled)                 (unscaled)
Objective...............:  -4.9133848834403917e+00   -6.2891326508037011e+00
Dual infeasibility......:   5.1813451061957294e-09    6.6321217359305340e-09
Constraint violation....:   2.8600066715941952e-10    2.8600066715941952e-10
Complementarity.........:   1.3974984671908742e-09    1.7887980380043188e-09
Overall NLP error.......:   5.1813451061957294e-09    6.6321217359305340e-09


Number of objective function evaluations             = 187
Number of objective gradient evaluations             = 106
Number of equality constraint evaluations            = 187
Number of inequality constraint evaluations          = 187
Number of equality constraint Jacobian evaluations   = 109
Number of inequality constraint Jacobian evaluations = 109
Number of Lagrangian Hessian evaluations             = 105
Total CPU secs in IPOPT (w/o function evaluations)   =    281.193
Total CPU secs in NLP function evaluations           =      4.499

EXIT: Optimal Solution Found.
